NAME:  test1
TYPE: AGTSP
COMMENT: gtsp tours
DIMENSION:  73
GTSP_SETS: 19
EDGE_WEIGHT_TYPE: EXPLICIT
EDGE_WEIGHT_FORMAT: FULL_MATRIX 
EDGE_WEIGHT_SECTION
999999	0	999999	999999	48876	48876	999999	999999	48887	48887	999999	999999	48861	48861	48861	48853	48892	48892	999999	999999	48871	48871	999999	999999	48865	48865	48865	48857	48873	48873	999999	999999	48879	48879	999999	999999	48866	48866	48866	48858	48881	48881	999999	999999	48863	48863	48863	48855	48886	48886	999999	999999	48828	48828	48820	999999	48890	48890	999999	999999	48870	48870	999999	999999	48852	48852	48852	48844	48860
999999	999999	0	999999	48876	48876	48876	999999	48887	48887	48887	999999	48861	48861	48861	999999	48892	48892	48892	999999	48871	48871	48871	999999	48865	48865	48865	999999	48873	48873	48873	999999	48879	48879	48879	999999	48866	48866	48866	999999	48881	48881	48881	999999	48863	48863	48863	999999	48886	48886	48886	999999	48828	48828	48828	48820	48890	48890	48890	999999	48870	48870	48870	999999	48852	48852	48852	999999	48860
999999	999999	999999	0	48876	48876	48876	48876	48887	48887	48887	48887	48861	48861	48861	48861	48892	48892	48892	48892	48871	48871	48871	48871	48865	48865	48865	48865	48873	48873	48873	48873	48879	48879	48879	48879	48866	48866	48866	48866	48881	48881	48881	48881	48863	48863	48863	48863	48886	48886	48886	48886	48828	48828	48828	48828	48890	48890	48890	48890	48870	48870	48870	48870	48852	48852	48852	48852	48860
0	999999	999999	999999	48876	48876	48876	48868	48887	999999	999999	999999	48861	48861	48853	999999	48892	999999	999999	999999	48871	48871	48871	48863	48865	48865	48857	999999	48873	48873	48873	48865	48879	48879	48879	48871	48866	48866	48858	999999	48881	48881	48881	48873	48863	48863	48855	999999	48886	48886	48886	48878	48828	48820	999999	999999	48890	999999	999999	999999	48870	48870	48870	48862	48852	48852	48844	999999	48860
48876	48876	999999	999999	999999	0	999999	999999	48846	48846	48846	48838	48867	48867	999999	999999	48862	48862	48862	48854	48880	48880	999999	999999	48842	48842	48834	999999	48833	48833	48825	999999	48850	48850	48850	48842	48844	48844	48836	999999	48894	48894	999999	999999	48854	48854	48854	48846	48856	48856	48856	48848	48874	48874	999999	999999	48870	48870	999999	999999	48847	48847	48847	48839	48853	48853	48853	48845	48855
48876	48876	48876	999999	999999	999999	0	999999	48846	48846	48846	999999	48867	48867	48867	999999	48862	48862	48862	999999	48880	48880	48880	999999	48842	48842	48842	48834	48833	48833	48833	48825	48850	48850	48850	999999	48844	48844	48844	48836	48894	48894	48894	999999	48854	48854	48854	999999	48856	48856	48856	999999	48874	48874	48874	999999	48870	48870	48870	999999	48847	48847	48847	999999	48853	48853	48853	999999	48855
48876	48876	48876	48876	999999	999999	999999	0	48846	48846	48846	48846	48867	48867	48867	48867	48862	48862	48862	48862	48880	48880	48880	48880	48842	48842	48842	48842	48833	48833	48833	48833	48850	48850	48850	48850	48844	48844	48844	48844	48894	48894	48894	48894	48854	48854	48854	48854	48856	48856	48856	48856	48874	48874	48874	48874	48870	48870	48870	48870	48847	48847	48847	48847	48853	48853	48853	48853	48855
48876	48876	48876	48868	0	999999	999999	999999	48846	48846	48838	999999	48867	48867	48867	48859	48862	48862	48854	999999	48880	48880	48880	48872	48842	48834	999999	999999	48833	48825	999999	999999	48850	48850	48842	999999	48844	48836	999999	999999	48894	999999	999999	999999	48854	48854	48846	999999	48856	48856	48848	999999	48874	48874	48874	48866	48870	48870	48870	48862	48847	48847	48839	999999	48853	48853	48845	999999	48855
48887	48887	999999	999999	48846	48846	48846	48838	999999	0	999999	999999	48864	48864	48864	48856	48842	48842	48834	999999	48874	48874	999999	999999	48863	48863	48863	48855	48855	48855	48855	48847	48836	48836	48828	999999	48846	48846	48846	48838	48885	48885	999999	999999	48852	48852	48852	48844	48837	48837	48829	999999	48884	48884	999999	999999	48853	48853	48853	48845	48842	48842	48834	999999	48859	48859	48859	48851	48855
48887	48887	48887	999999	48846	48846	48846	999999	999999	999999	0	999999	48864	48864	48864	999999	48842	48842	48842	48834	48874	48874	48874	999999	48863	48863	48863	999999	48855	48855	48855	999999	48836	48836	48836	48828	48846	48846	48846	999999	48885	48885	48885	999999	48852	48852	48852	999999	48837	48837	48837	48829	48884	48884	48884	999999	48853	48853	48853	999999	48842	48842	48842	48834	48859	48859	48859	999999	48855
48887	48887	48887	48887	48846	48846	48846	48846	999999	999999	999999	0	48864	48864	48864	48864	48842	48842	48842	48842	48874	48874	48874	48874	48863	48863	48863	48863	48855	48855	48855	48855	48836	48836	48836	48836	48846	48846	48846	48846	48885	48885	48885	48885	48852	48852	48852	48852	48837	48837	48837	48837	48884	48884	48884	48884	48853	48853	48853	48853	48842	48842	48842	48842	48859	48859	48859	48859	48855
48887	999999	999999	999999	48846	48846	48838	999999	0	999999	999999	999999	48864	48864	48856	999999	48842	48834	999999	999999	48874	48874	48874	48866	48863	48863	48855	999999	48855	48855	48847	999999	48836	48828	999999	999999	48846	48846	48838	999999	48885	48885	48885	48877	48852	48852	48844	999999	48837	48829	999999	999999	48884	48884	48884	48876	48853	48853	48845	999999	48842	48834	999999	999999	48859	48859	48851	999999	48855
48861	48861	48861	48853	48867	48867	999999	999999	48864	48864	48864	48856	999999	0	999999	999999	48860	48860	48860	48852	48839	48839	48831	999999	48870	48870	999999	999999	48871	48871	999999	999999	48852	48852	48852	48844	48846	48846	48846	48838	48852	48852	48852	48844	48836	48836	48828	999999	48856	48856	48856	48848	48857	48857	48857	48849	48854	48854	48854	48846	48846	48846	48846	48838	48842	48842	48834	999999	48835
48861	48861	48861	999999	48867	48867	48867	999999	48864	48864	48864	999999	999999	999999	0	999999	48860	48860	48860	999999	48839	48839	48839	48831	48870	48870	48870	999999	48871	48871	48871	999999	48852	48852	48852	999999	48846	48846	48846	999999	48852	48852	48852	999999	48836	48836	48836	48828	48856	48856	48856	999999	48857	48857	48857	999999	48854	48854	48854	999999	48846	48846	48846	999999	48842	48842	48842	48834	48835
48861	48861	48861	48861	48867	48867	48867	48867	48864	48864	48864	48864	999999	999999	999999	0	48860	48860	48860	48860	48839	48839	48839	48839	48870	48870	48870	48870	48871	48871	48871	48871	48852	48852	48852	48852	48846	48846	48846	48846	48852	48852	48852	48852	48836	48836	48836	48836	48856	48856	48856	48856	48857	48857	48857	48857	48854	48854	48854	48854	48846	48846	48846	48846	48842	48842	48842	48842	48835
48861	48861	48853	999999	48867	48867	48867	48859	48864	48864	48856	999999	0	999999	999999	999999	48860	48860	48852	999999	48839	48831	999999	999999	48870	48870	48870	48862	48871	48871	48871	48863	48852	48852	48844	999999	48846	48846	48838	999999	48852	48852	48844	999999	48836	48828	999999	999999	48856	48856	48848	999999	48857	48857	48849	999999	48854	48854	48846	999999	48846	48846	48838	999999	48842	48834	999999	999999	48835
48892	48892	999999	999999	48862	48862	48862	48854	48842	48842	48834	999999	48860	48860	48860	48852	999999	0	999999	999999	48865	48865	48865	48857	48878	48878	999999	999999	48871	48871	999999	999999	48838	48838	48830	999999	48853	48853	48853	48845	48874	48874	999999	999999	48853	48853	48853	48845	48831	48831	48823	999999	48889	48889	999999	999999	48837	48837	48829	999999	48847	48847	48847	48839	48865	48865	48865	48857	48856
48892	48892	48892	999999	48862	48862	48862	999999	48842	48842	48842	48834	48860	48860	48860	999999	999999	999999	0	999999	48865	48865	48865	999999	48878	48878	48878	999999	48871	48871	48871	999999	48838	48838	48838	48830	48853	48853	48853	999999	48874	48874	48874	999999	48853	48853	48853	999999	48831	48831	48831	48823	48889	48889	48889	999999	48837	48837	48837	48829	48847	48847	48847	999999	48865	48865	48865	999999	48856
48892	48892	48892	48892	48862	48862	48862	48862	48842	48842	48842	48842	48860	48860	48860	48860	999999	999999	999999	0	48865	48865	48865	48865	48878	48878	48878	48878	48871	48871	48871	48871	48838	48838	48838	48838	48853	48853	48853	48853	48874	48874	48874	48874	48853	48853	48853	48853	48831	48831	48831	48831	48889	48889	48889	48889	48837	48837	48837	48837	48847	48847	48847	48847	48865	48865	48865	48865	48856
48892	999999	999999	999999	48862	48862	48854	999999	48842	48834	999999	999999	48860	48860	48852	999999	0	999999	999999	999999	48865	48865	48857	999999	48878	48878	48878	48870	48871	48871	48871	48863	48838	48830	999999	999999	48853	48853	48845	999999	48874	48874	48874	48866	48853	48853	48845	999999	48831	48823	999999	999999	48889	999999	999999	999999	48837	48829	999999	999999	48847	48847	48839	999999	48865	48865	48857	999999	48856
48871	48871	999999	999999	48880	48880	999999	999999	48874	48874	999999	999999	48839	48839	48831	999999	48865	48865	48865	48857	999999	0	999999	999999	48885	48885	999999	999999	48885	48885	999999	999999	48861	48861	48861	48853	48860	48860	48860	48852	48837	48837	48829	999999	48850	48850	48850	48842	48863	48863	48863	48855	48867	48867	999999	999999	48855	48855	48855	48847	48858	48858	48858	48850	48857	48857	48857	48849	48850
48871	48871	48871	999999	48880	48880	48880	999999	48874	48874	48874	999999	48839	48839	48839	48831	48865	48865	48865	999999	999999	999999	0	999999	48885	48885	48885	999999	48885	48885	48885	999999	48861	48861	48861	999999	48860	48860	48860	999999	48837	48837	48837	48829	48850	48850	48850	999999	48863	48863	48863	999999	48867	48867	48867	999999	48855	48855	48855	999999	48858	48858	48858	999999	48857	48857	48857	999999	48850
48871	48871	48871	48871	48880	48880	48880	48880	48874	48874	48874	48874	48839	48839	48839	48839	48865	48865	48865	48865	999999	999999	999999	0	48885	48885	48885	48885	48885	48885	48885	48885	48861	48861	48861	48861	48860	48860	48860	48860	48837	48837	48837	48837	48850	48850	48850	48850	48863	48863	48863	48863	48867	48867	48867	48867	48855	48855	48855	48855	48858	48858	48858	48858	48857	48857	48857	48857	48850
48871	48871	48871	48863	48880	48880	48880	48872	48874	48874	48874	48866	48839	48831	999999	999999	48865	48865	48857	999999	0	999999	999999	999999	48885	48885	48885	48877	48885	48885	48885	48877	48861	48861	48853	999999	48860	48860	48852	999999	48837	48829	999999	999999	48850	48850	48842	999999	48863	48863	48855	999999	48867	48867	48867	48859	48855	48855	48847	999999	48858	48858	48850	999999	48857	48857	48849	999999	48850
48865	48865	48865	48857	48842	48842	48834	999999	48863	48863	48863	48855	48870	48870	999999	999999	48878	48878	999999	999999	48885	48885	999999	999999	999999	0	999999	999999	48834	48834	48826	999999	48864	48864	48864	48856	48852	48852	48852	48844	48898	48898	999999	999999	48860	48860	48860	48852	48871	48871	999999	999999	48864	48864	48864	48856	48883	48883	999999	999999	48857	48857	48857	48849	48852	48852	48852	48844	48859
48865	48865	48865	999999	48842	48842	48842	48834	48863	48863	48863	999999	48870	48870	48870	999999	48878	48878	48878	999999	48885	48885	48885	999999	999999	999999	0	999999	48834	48834	48834	48826	48864	48864	48864	999999	48852	48852	48852	999999	48898	48898	48898	999999	48860	48860	48860	999999	48871	48871	48871	999999	48864	48864	48864	999999	48883	48883	48883	999999	48857	48857	48857	999999	48852	48852	48852	999999	48859
48865	48865	48865	48865	48842	48842	48842	48842	48863	48863	48863	48863	48870	48870	48870	48870	48878	48878	48878	48878	48885	48885	48885	48885	999999	999999	999999	0	48834	48834	48834	48834	48864	48864	48864	48864	48852	48852	48852	48852	48898	48898	48898	48898	48860	48860	48860	48860	48871	48871	48871	48871	48864	48864	48864	48864	48883	48883	48883	48883	48857	48857	48857	48857	48852	48852	48852	48852	48859
48865	48865	48857	999999	48842	48834	999999	999999	48863	48863	48855	999999	48870	48870	48870	48862	48878	48878	48878	48870	48885	48885	48885	48877	0	999999	999999	999999	48834	48826	999999	999999	48864	48864	48856	999999	48852	48852	48844	999999	48898	999999	999999	999999	48860	48860	48852	999999	48871	48871	48871	48863	48864	48864	48856	999999	48883	48883	48883	48875	48857	48857	48849	999999	48852	48852	48844	999999	48859
48873	48873	999999	999999	48833	48833	48825	999999	48855	48855	48855	48847	48871	48871	999999	999999	48871	48871	999999	999999	48885	48885	999999	999999	48834	48834	48826	999999	999999	0	999999	999999	48858	48858	48858	48850	48849	48849	48849	48841	48899	48899	999999	999999	48859	48859	48859	48851	48864	48864	48864	48856	48872	48872	999999	999999	48878	48878	999999	999999	48854	48854	48854	48846	48854	48854	48854	48846	48859
48873	48873	48873	999999	48833	48833	48833	48825	48855	48855	48855	999999	48871	48871	48871	999999	48871	48871	48871	999999	48885	48885	48885	999999	48834	48834	48834	48826	999999	999999	0	999999	48858	48858	48858	999999	48849	48849	48849	999999	48899	48899	48899	999999	48859	48859	48859	999999	48864	48864	48864	999999	48872	48872	48872	999999	48878	48878	48878	999999	48854	48854	48854	999999	48854	48854	48854	999999	48859
48873	48873	48873	48873	48833	48833	48833	48833	48855	48855	48855	48855	48871	48871	48871	48871	48871	48871	48871	48871	48885	48885	48885	48885	48834	48834	48834	48834	999999	999999	999999	0	48858	48858	48858	48858	48849	48849	48849	48849	48899	48899	48899	48899	48859	48859	48859	48859	48864	48864	48864	48864	48872	48872	48872	48872	48878	48878	48878	48878	48854	48854	48854	48854	48854	48854	48854	48854	48859
48873	48873	48873	48865	48833	48825	999999	999999	48855	48855	48847	999999	48871	48871	48871	48863	48871	48871	48871	48863	48885	48885	48885	48877	48834	48826	999999	999999	0	999999	999999	999999	48858	48858	48850	999999	48849	48849	48841	999999	48899	999999	999999	999999	48859	48859	48851	999999	48864	48864	48856	999999	48872	48872	48872	48864	48878	48878	48878	48870	48854	48854	48846	999999	48854	48854	48846	999999	48859
48879	48879	999999	999999	48850	48850	48850	48842	48836	48836	48828	999999	48852	48852	48852	48844	48838	48838	48830	999999	48861	48861	48861	48853	48864	48864	48864	48856	48858	48858	48858	48850	999999	0	999999	999999	48838	48838	48830	999999	48873	48873	999999	999999	48842	48842	48834	999999	48831	48831	48823	999999	48876	48876	999999	999999	48844	48844	48836	999999	48833	48833	48825	999999	48851	48851	48851	48843	48844
48879	48879	48879	999999	48850	48850	48850	999999	48836	48836	48836	48828	48852	48852	48852	999999	48838	48838	48838	48830	48861	48861	48861	999999	48864	48864	48864	999999	48858	48858	48858	999999	999999	999999	0	999999	48838	48838	48838	48830	48873	48873	48873	999999	48842	48842	48842	48834	48831	48831	48831	48823	48876	48876	48876	999999	48844	48844	48844	48836	48833	48833	48833	48825	48851	48851	48851	999999	48844
48879	48879	48879	48879	48850	48850	48850	48850	48836	48836	48836	48836	48852	48852	48852	48852	48838	48838	48838	48838	48861	48861	48861	48861	48864	48864	48864	48864	48858	48858	48858	48858	999999	999999	999999	0	48838	48838	48838	48838	48873	48873	48873	48873	48842	48842	48842	48842	48831	48831	48831	48831	48876	48876	48876	48876	48844	48844	48844	48844	48833	48833	48833	48833	48851	48851	48851	48851	48844
48879	48879	48879	48871	48850	48850	48842	999999	48836	48828	999999	999999	48852	48852	48844	999999	48838	48830	999999	999999	48861	48861	48853	999999	48864	48864	48856	999999	48858	48858	48850	999999	0	999999	999999	999999	48838	48830	999999	999999	48873	48873	48873	48865	48842	48834	999999	999999	48831	48823	999999	999999	48876	48876	48876	48868	48844	48836	999999	999999	48833	48825	999999	999999	48851	48851	48843	999999	48844
48866	48866	48866	48858	48844	48844	48836	999999	48846	48846	48846	48838	48846	48846	48846	48838	48853	48853	48853	48845	48860	48860	48860	48852	48852	48852	48852	48844	48849	48849	48849	48841	48838	48838	48830	999999	999999	0	999999	999999	48873	48873	999999	999999	48834	48834	48826	999999	48846	48846	48846	48838	48862	48862	48862	48854	48856	48856	48856	48848	48830	48830	48822	999999	48838	48838	48830	999999	48835
48866	48866	48866	999999	48844	48844	48844	48836	48846	48846	48846	999999	48846	48846	48846	999999	48853	48853	48853	999999	48860	48860	48860	999999	48852	48852	48852	999999	48849	48849	48849	999999	48838	48838	48838	48830	999999	999999	0	999999	48873	48873	48873	999999	48834	48834	48834	48826	48846	48846	48846	999999	48862	48862	48862	999999	48856	48856	48856	999999	48830	48830	48830	48822	48838	48838	48838	48830	48835
48866	48866	48866	48866	48844	48844	48844	48844	48846	48846	48846	48846	48846	48846	48846	48846	48853	48853	48853	48853	48860	48860	48860	48860	48852	48852	48852	48852	48849	48849	48849	48849	48838	48838	48838	48838	999999	999999	999999	0	48873	48873	48873	48873	48834	48834	48834	48834	48846	48846	48846	48846	48862	48862	48862	48862	48856	48856	48856	48856	48830	48830	48830	48830	48838	48838	48838	48838	48835
48866	48866	48858	999999	48844	48836	999999	999999	48846	48846	48838	999999	48846	48846	48838	999999	48853	48853	48845	999999	48860	48860	48852	999999	48852	48852	48844	999999	48849	48849	48841	999999	48838	48830	999999	999999	0	999999	999999	999999	48873	48873	48873	48865	48834	48826	999999	999999	48846	48846	48838	999999	48862	48862	48854	999999	48856	48856	48848	999999	48830	48822	999999	999999	48838	48830	999999	999999	48835
48881	48881	999999	999999	48894	48894	999999	999999	48885	48885	999999	999999	48852	48852	48852	48844	48874	48874	999999	999999	48837	48837	48829	999999	48898	48898	999999	999999	48899	48899	999999	999999	48873	48873	999999	999999	48873	48873	999999	999999	999999	0	999999	999999	48863	48863	48863	48855	48873	48873	999999	999999	48877	48877	999999	999999	48862	48862	48862	48854	48871	48871	999999	999999	48870	48870	999999	999999	48863
48881	48881	48881	999999	48894	48894	48894	999999	48885	48885	48885	999999	48852	48852	48852	999999	48874	48874	48874	999999	48837	48837	48837	48829	48898	48898	48898	999999	48899	48899	48899	999999	48873	48873	48873	999999	48873	48873	48873	999999	999999	999999	0	999999	48863	48863	48863	999999	48873	48873	48873	999999	48877	48877	48877	999999	48862	48862	48862	999999	48871	48871	48871	999999	48870	48870	48870	999999	48863
48881	48881	48881	48881	48894	48894	48894	48894	48885	48885	48885	48885	48852	48852	48852	48852	48874	48874	48874	48874	48837	48837	48837	48837	48898	48898	48898	48898	48899	48899	48899	48899	48873	48873	48873	48873	48873	48873	48873	48873	999999	999999	999999	0	48863	48863	48863	48863	48873	48873	48873	48873	48877	48877	48877	48877	48862	48862	48862	48862	48871	48871	48871	48871	48870	48870	48870	48870	48863
48881	48881	48881	48873	48894	999999	999999	999999	48885	48885	48885	48877	48852	48852	48844	999999	48874	48874	48874	48866	48837	48829	999999	999999	48898	999999	999999	999999	48899	999999	999999	999999	48873	48873	48873	48865	48873	48873	48873	48865	0	999999	999999	999999	48863	48863	48855	999999	48873	48873	48873	48865	48877	48877	48877	48869	48862	48862	48854	999999	48871	48871	48871	48863	48870	48870	48870	48862	48863
48863	48863	48863	48855	48854	48854	48854	48846	48852	48852	48852	48844	48836	48836	48828	999999	48853	48853	48853	48845	48850	48850	48850	48842	48860	48860	48860	48852	48859	48859	48859	48851	48842	48842	48834	999999	48834	48834	48826	999999	48863	48863	48863	48855	999999	0	999999	999999	48847	48847	48847	48839	48859	48859	48859	48851	48852	48852	48852	48844	48834	48834	48826	999999	48836	48836	48828	999999	48826
48863	48863	48863	999999	48854	48854	48854	999999	48852	48852	48852	999999	48836	48836	48836	48828	48853	48853	48853	999999	48850	48850	48850	999999	48860	48860	48860	999999	48859	48859	48859	999999	48842	48842	48842	48834	48834	48834	48834	48826	48863	48863	48863	999999	999999	999999	0	999999	48847	48847	48847	999999	48859	48859	48859	999999	48852	48852	48852	999999	48834	48834	48834	48826	48836	48836	48836	48828	48826
48863	48863	48863	48863	48854	48854	48854	48854	48852	48852	48852	48852	48836	48836	48836	48836	48853	48853	48853	48853	48850	48850	48850	48850	48860	48860	48860	48860	48859	48859	48859	48859	48842	48842	48842	48842	48834	48834	48834	48834	48863	48863	48863	48863	999999	999999	999999	0	48847	48847	48847	48847	48859	48859	48859	48859	48852	48852	48852	48852	48834	48834	48834	48834	48836	48836	48836	48836	48826
48863	48863	48855	999999	48854	48854	48846	999999	48852	48852	48844	999999	48836	48828	999999	999999	48853	48853	48845	999999	48850	48850	48842	999999	48860	48860	48852	999999	48859	48859	48851	999999	48842	48834	999999	999999	48834	48826	999999	999999	48863	48863	48855	999999	0	999999	999999	999999	48847	48847	48839	999999	48859	48859	48851	999999	48852	48852	48844	999999	48834	48826	999999	999999	48836	48828	999999	999999	48826
48886	48886	999999	999999	48856	48856	48856	48848	48837	48837	48829	999999	48856	48856	48856	48848	48831	48831	48823	999999	48863	48863	48863	48855	48871	48871	999999	999999	48864	48864	48864	48856	48831	48831	48823	999999	48846	48846	48846	48838	48873	48873	999999	999999	48847	48847	48847	48839	999999	0	999999	999999	48882	48882	999999	999999	48839	48839	48831	999999	48840	48840	48832	999999	48858	48858	48858	48850	48850
48886	48886	48886	999999	48856	48856	48856	999999	48837	48837	48837	48829	48856	48856	48856	999999	48831	48831	48831	48823	48863	48863	48863	999999	48871	48871	48871	999999	48864	48864	48864	999999	48831	48831	48831	48823	48846	48846	48846	999999	48873	48873	48873	999999	48847	48847	48847	999999	999999	999999	0	999999	48882	48882	48882	999999	48839	48839	48839	48831	48840	48840	48840	48832	48858	48858	48858	999999	48850
48886	48886	48886	48886	48856	48856	48856	48856	48837	48837	48837	48837	48856	48856	48856	48856	48831	48831	48831	48831	48863	48863	48863	48863	48871	48871	48871	48871	48864	48864	48864	48864	48831	48831	48831	48831	48846	48846	48846	48846	48873	48873	48873	48873	48847	48847	48847	48847	999999	999999	999999	0	48882	48882	48882	48882	48839	48839	48839	48839	48840	48840	48840	48840	48858	48858	48858	48858	48850
48886	48886	48886	48878	48856	48856	48848	999999	48837	48829	999999	999999	48856	48856	48848	999999	48831	48823	999999	999999	48863	48863	48855	999999	48871	48871	48871	48863	48864	48864	48856	999999	48831	48823	999999	999999	48846	48846	48838	999999	48873	48873	48873	48865	48847	48847	48839	999999	0	999999	999999	999999	48882	48882	48882	48874	48839	48831	999999	999999	48840	48832	999999	999999	48858	48858	48850	999999	48850
48828	48828	48820	999999	48874	48874	999999	999999	48884	48884	999999	999999	48857	48857	48857	48849	48889	48889	999999	999999	48867	48867	999999	999999	48864	48864	48864	48856	48872	48872	999999	999999	48876	48876	999999	999999	48862	48862	48862	48854	48877	48877	999999	999999	48859	48859	48859	48851	48882	48882	999999	999999	999999	0	999999	999999	48886	48886	999999	999999	48867	48867	999999	999999	48849	48849	48849	48841	48856
48828	48828	48828	48820	48874	48874	48874	999999	48884	48884	48884	999999	48857	48857	48857	999999	48889	48889	48889	999999	48867	48867	48867	999999	48864	48864	48864	999999	48872	48872	48872	999999	48876	48876	48876	999999	48862	48862	48862	999999	48877	48877	48877	999999	48859	48859	48859	999999	48882	48882	48882	999999	999999	999999	0	999999	48886	48886	48886	999999	48867	48867	48867	999999	48849	48849	48849	999999	48856
48828	48828	48828	48828	48874	48874	48874	48874	48884	48884	48884	48884	48857	48857	48857	48857	48889	48889	48889	48889	48867	48867	48867	48867	48864	48864	48864	48864	48872	48872	48872	48872	48876	48876	48876	48876	48862	48862	48862	48862	48877	48877	48877	48877	48859	48859	48859	48859	48882	48882	48882	48882	999999	999999	999999	0	48886	48886	48886	48886	48867	48867	48867	48867	48849	48849	48849	48849	48856
48828	48820	999999	999999	48874	48874	48874	48866	48884	48884	48884	48876	48857	48857	48849	999999	48889	999999	999999	999999	48867	48867	48867	48859	48864	48864	48856	999999	48872	48872	48872	48864	48876	48876	48876	48868	48862	48862	48854	999999	48877	48877	48877	48869	48859	48859	48851	999999	48882	48882	48882	48874	0	999999	999999	999999	48886	48886	48886	48878	48867	48867	48867	48859	48849	48849	48841	999999	48856
48890	48890	999999	999999	48870	48870	999999	999999	48853	48853	48853	48845	48854	48854	48854	48846	48837	48837	48829	999999	48855	48855	48855	48847	48883	48883	999999	999999	48878	48878	999999	999999	48844	48844	48836	999999	48856	48856	48856	48848	48862	48862	48862	48854	48852	48852	48852	48844	48839	48839	48831	999999	48886	48886	999999	999999	999999	0	999999	999999	48850	48850	48850	48842	48864	48864	48864	48856	48854
48890	48890	48890	999999	48870	48870	48870	999999	48853	48853	48853	999999	48854	48854	48854	999999	48837	48837	48837	48829	48855	48855	48855	999999	48883	48883	48883	999999	48878	48878	48878	999999	48844	48844	48844	48836	48856	48856	48856	999999	48862	48862	48862	999999	48852	48852	48852	999999	48839	48839	48839	48831	48886	48886	48886	999999	999999	999999	0	999999	48850	48850	48850	999999	48864	48864	48864	999999	48854
48890	48890	48890	48890	48870	48870	48870	48870	48853	48853	48853	48853	48854	48854	48854	48854	48837	48837	48837	48837	48855	48855	48855	48855	48883	48883	48883	48883	48878	48878	48878	48878	48844	48844	48844	48844	48856	48856	48856	48856	48862	48862	48862	48862	48852	48852	48852	48852	48839	48839	48839	48839	48886	48886	48886	48886	999999	999999	999999	0	48850	48850	48850	48850	48864	48864	48864	48864	48854
48890	999999	999999	999999	48870	48870	48870	48862	48853	48853	48845	999999	48854	48854	48846	999999	48837	48829	999999	999999	48855	48855	48847	999999	48883	48883	48883	48875	48878	48878	48878	48870	48844	48836	999999	999999	48856	48856	48848	999999	48862	48862	48854	999999	48852	48852	48844	999999	48839	48831	999999	999999	48886	48886	48886	48878	0	999999	999999	999999	48850	48850	48842	999999	48864	48864	48856	999999	48854
48870	48870	999999	999999	48847	48847	48847	48839	48842	48842	48834	999999	48846	48846	48846	48838	48847	48847	48847	48839	48858	48858	48858	48850	48857	48857	48857	48849	48854	48854	48854	48846	48833	48833	48825	999999	48830	48830	48822	999999	48871	48871	999999	999999	48834	48834	48826	999999	48840	48840	48832	999999	48867	48867	999999	999999	48850	48850	48850	48842	999999	0	999999	999999	48842	48842	48834	999999	48836
48870	48870	48870	999999	48847	48847	48847	999999	48842	48842	48842	48834	48846	48846	48846	999999	48847	48847	48847	999999	48858	48858	48858	999999	48857	48857	48857	999999	48854	48854	48854	999999	48833	48833	48833	48825	48830	48830	48830	48822	48871	48871	48871	999999	48834	48834	48834	48826	48840	48840	48840	48832	48867	48867	48867	999999	48850	48850	48850	999999	999999	999999	0	999999	48842	48842	48842	48834	48836
48870	48870	48870	48870	48847	48847	48847	48847	48842	48842	48842	48842	48846	48846	48846	48846	48847	48847	48847	48847	48858	48858	48858	48858	48857	48857	48857	48857	48854	48854	48854	48854	48833	48833	48833	48833	48830	48830	48830	48830	48871	48871	48871	48871	48834	48834	48834	48834	48840	48840	48840	48840	48867	48867	48867	48867	48850	48850	48850	48850	999999	999999	999999	0	48842	48842	48842	48842	48836
48870	48870	48870	48862	48847	48847	48839	999999	48842	48834	999999	999999	48846	48846	48838	999999	48847	48847	48839	999999	48858	48858	48850	999999	48857	48857	48849	999999	48854	48854	48846	999999	48833	48825	999999	999999	48830	48822	999999	999999	48871	48871	48871	48863	48834	48826	999999	999999	48840	48832	999999	999999	48867	48867	48867	48859	48850	48850	48842	999999	0	999999	999999	999999	48842	48834	999999	999999	48836
48852	48852	48852	48844	48853	48853	48853	48845	48859	48859	48859	48851	48842	48842	48834	999999	48865	48865	48865	48857	48857	48857	48857	48849	48852	48852	48852	48844	48854	48854	48854	48846	48851	48851	48851	48843	48838	48838	48830	999999	48870	48870	999999	999999	48836	48836	48828	999999	48858	48858	48858	48850	48849	48849	48849	48841	48864	48864	48864	48856	48842	48842	48834	999999	999999	0	999999	999999	48834
48852	48852	48852	999999	48853	48853	48853	999999	48859	48859	48859	999999	48842	48842	48842	48834	48865	48865	48865	999999	48857	48857	48857	999999	48852	48852	48852	999999	48854	48854	48854	999999	48851	48851	48851	999999	48838	48838	48838	48830	48870	48870	48870	999999	48836	48836	48836	48828	48858	48858	48858	999999	48849	48849	48849	999999	48864	48864	48864	999999	48842	48842	48842	48834	999999	999999	0	999999	48834
48852	48852	48852	48852	48853	48853	48853	48853	48859	48859	48859	48859	48842	48842	48842	48842	48865	48865	48865	48865	48857	48857	48857	48857	48852	48852	48852	48852	48854	48854	48854	48854	48851	48851	48851	48851	48838	48838	48838	48838	48870	48870	48870	48870	48836	48836	48836	48836	48858	48858	48858	48858	48849	48849	48849	48849	48864	48864	48864	48864	48842	48842	48842	48842	999999	999999	999999	0	48834
48852	48852	48844	999999	48853	48853	48845	999999	48859	48859	48851	999999	48842	48834	999999	999999	48865	48865	48857	999999	48857	48857	48849	999999	48852	48852	48844	999999	48854	48854	48846	999999	48851	48851	48843	999999	48838	48830	999999	999999	48870	48870	48870	48862	48836	48828	999999	999999	48858	48858	48850	999999	48849	48849	48841	999999	48864	48864	48856	999999	48842	48834	999999	999999	0	999999	999999	999999	48834
48860	48860	48860	48852	48855	48855	48855	48847	48855	48855	48855	48847	48835	48835	48827	999999	48856	48856	48856	48848	48850	48850	48850	48842	48859	48859	48859	48851	48859	48859	48859	48851	48844	48844	48836	999999	48835	48835	48827	999999	48863	48863	48863	48855	48826	48826	48818	999999	48850	48850	48850	48842	48856	48856	48856	48848	48854	48854	48854	48846	48836	48836	48828	999999	48834	48834	48826	999999	999999
GTSP_SET_SECTION:
1 1 2 3 4 -1
2 5 6 7 8 -1
3 9 10 11 12 -1
4 13 14 15 16 -1
5 17 18 19 20 -1
6 21 22 23 24 -1
7 25 26 27 28 -1
8 29 30 31 32 -1
9 33 34 35 36 -1
10 37 38 39 40 -1
11 41 42 43 44 -1
12 45 46 47 48 -1
13 49 50 51 52 -1
14 53 54 55 56 -1
15 57 58 59 60 -1
16 61 62 63 64 -1
17 65 66 67 68 -1
18 69 70 71 72-1
19 73 -1
EOF